1758.64
0 1 9 3 12 4 2 14 17 8 7 10 18 5 6 13 0
0 35 20 11 19 46 16 15 22 23 25 24 29 21 26 28 27 0
0 33 34 30 32 31 37 91 44 38 43 42 41 39 40 0
0 64 49 47 48 45 60 57 56 55 54 50 51 52 53 0
0 66 65 63 62 69 68 67 59 61 58 0
0 75 74 72 73 84 83 70 71 81 78 79 80 77 76 0
0 90 88 86 85 93 92 87 95 94 89 0
0 82 36 98 100 99 96 97 0
